
Gurobi 9.5.1 (linux64) logging started Wed Mar  9 18:05:19 2022

Set parameter LogFile to value "../results/logs/log_2022_03_09_17_57.csv_6_80.log"
Set parameter Method to value 3
Gurobi Optimizer version 9.5.1 build v9.5.1rc2 (linux64)
Thread count: 8 physical cores, 8 logical processors, using up to 8 threads
Optimize a model with 1039 rows, 9882 columns and 16749 nonzeros
Model fingerprint: 0xc01dc3cd
Variable types: 4941 continuous, 4941 integer (4941 binary)
Coefficient statistics:
  Matrix range     [1e+00, 6e+00]
  Objective range  [1e+00, 1e+00]
  Bounds range     [1e+00, 1e+00]
  RHS range        [1e+00, 8e+01]
Found heuristic solution: objective -0.0000000
Presolve removed 585 rows and 9150 columns
Presolve time: 0.01s
Presolved: 454 rows, 732 columns, 2692 nonzeros
Extracted 154 lazy constraints
Variable types: 413 continuous, 319 integer (317 binary)

Concurrent LP optimizer: primal simplex, dual simplex, and barrier
Showing barrier log only...

Root barrier log...

Ordering time: 0.00s

Barrier statistics:
 AA' NZ     : 5.250e+02
 Factor NZ  : 1.997e+03
 Factor Ops : 2.132e+04 (less than 1 second per iteration)
 Threads    : 1

                  Objective                Residual
Iter       Primal          Dual         Primal    Dual     Compl     Time
   0   5.48397394e+02  6.04911625e+03  1.29e+00 2.61e+00  9.22e+00     0s
   1   1.83129479e+02  2.56763319e+03  6.15e-02 1.16e+00  1.62e+00     0s
   2   2.12404111e+02  4.61974737e+02  0.00e+00 8.13e-02  1.52e-01     0s
   3   3.28173012e+02  3.50643903e+02  0.00e+00 2.24e-03  1.30e-02     0s
   4   3.37935968e+02  3.38114761e+02  0.00e+00 5.33e-15  1.02e-04     0s
   5   3.38000000e+02  3.38000000e+02  0.00e+00 1.78e-15  4.82e-10     0s

Barrier solved model in 5 iterations and 0.02 seconds (0.02 work units)
Optimal objective 3.38000000e+02


Solved with dual simplex

Root relaxation: objective 3.380000e+02, 137 iterations, 0.00 seconds (0.00 work units)

    Nodes    |    Current Node    |     Objective Bounds      |     Work
 Expl Unexpl |  Obj  Depth IntInf | Incumbent    BestBd   Gap | It/Node Time

     0     0  134.39590    0  144   -0.00000  134.39590      -     -    0s
     0     0   86.44229    0   74   -0.00000   86.44229      -     -    0s
     0     0   85.99287    0   77   -0.00000   85.99287      -     -    0s
     0     0   85.96764    0   75   -0.00000   85.96764      -     -    0s
     0     0   82.00217    0   56   -0.00000   82.00217      -     -    0s
     0     0   81.47234    0   56   -0.00000   81.47234      -     -    0s
     0     0   81.36614    0   58   -0.00000   81.36614      -     -    0s
     0     0   81.33688    0   57   -0.00000   81.33688      -     -    0s
     0     0   80.51621    0   49   -0.00000   80.51621      -     -    0s
     0     0   80.28604    0   42   -0.00000   80.28604      -     -    0s
     0     0   80.27220    0   57   -0.00000   80.27220      -     -    0s
     0     0   79.77463    0   51   -0.00000   79.77463      -     -    0s
     0     0   79.77463    0   51   -0.00000   79.77463      -     -    0s
     0     2   79.77463    0   51   -0.00000   79.77463      -     -    0s
H   58    64                      76.0000000   79.37387  4.44%  28.2    0s
H  171   161                      77.0000000   79.37387  3.08%  16.3    0s
*  693   348              22      78.0000000   79.05308  1.35%  14.8    0s

Cutting planes:
  Gomory: 58
  Implied bound: 20
  MIR: 179
  RLT: 25
  Relax-and-lift: 20
  Lazy constraints: 146

Explored 974 nodes (13148 simplex iterations) in 0.30 seconds (0.31 work units)
Thread count was 8 (of 8 available processors)

Solution count 4: 78 77 76 -0 

Optimal solution found (tolerance 1.00e-04)
Best objective 7.800000000000e+01, best bound 7.800000000000e+01, gap 0.0000%
